\ Generated by MPModelProtoExporter
\   Name             : 
\   Format           : Free
\   Constraints      : 283
\   Variables        : 126
\     Binary         : 126
\     Integer        : 0
\     Continuous     : 0
Minimize
 Obj: +363.924 mainDB_n12 +2.704 imgQueue_n1 +1.352 imgQueue_n15 +5.408 imgQueue_n8 +40.128 imgQueue_n12 +20.064 imgQueue_n7 +5.408 imgQueue_n0 +2.704 snsQueue_n1 +1.352 snsQueue_n15 +5.408 snsQueue_n8 +40.128 snsQueue_n12 +20.064 snsQueue_n7 +5.408 snsQueue_n0 +2.704 ctrlQueue_n1 +1.352 ctrlQueue_n15 +5.408 ctrlQueue_n8 +40.128 ctrlQueue_n12 +20.064 ctrlQueue_n7 +5.408 ctrlQueue_n0 +3.276 recognizer_n14 +56.215 recognizer_n5 +1.128 visualizer_n15 +31.616 visualizer_n12 +0.033 calibre_n9 +0.033 calibre_n14 +0.168 calibre_n5 +0.0249 calibre_n4 +0.0249 calibre_n6 +0.0452 rectify_n1 +0.0516 rectify_n15 +0.0388 rectify_n8 +0.2592 rectify_n12 +0.3234 rectify_n7 +0.0388 rectify_n0 +0.0296 roiSel_n9 +0.026 roiSel_n13 +0.0296 roiSel_n14 +0.1504 roiSel_n5 +0.0223 roiSel_n4 
Subject to
 one_node_mainDB: +1 mainDB_n12  = 1
 one_node_imgQueue: +1 imgQueue_n1 +1 imgQueue_n15 +1 imgQueue_n8 +1 imgQueue_n12 +1 imgQueue_n7 +1 imgQueue_n0  = 1
 one_node_snsQueue: +1 snsQueue_n1 +1 snsQueue_n15 +1 snsQueue_n8 +1 snsQueue_n12 +1 snsQueue_n7 +1 snsQueue_n0  = 1
 one_node_ctrlQueue: +1 ctrlQueue_n1 +1 ctrlQueue_n15 +1 ctrlQueue_n8 +1 ctrlQueue_n12 +1 ctrlQueue_n7 +1 ctrlQueue_n0  = 1
 one_node_recognizer: +1 recognizer_n14 +1 recognizer_n5  = 1
 one_node_visualizer: +1 visualizer_n15 +1 visualizer_n12  = 1
 one_node_calibre: +1 calibre_n9 +1 calibre_n14 +1 calibre_n5 +1 calibre_n4 +1 calibre_n6  = 1
 one_node_rectify: +1 rectify_n1 +1 rectify_n15 +1 rectify_n8 +1 rectify_n12 +1 rectify_n7 +1 rectify_n0  = 1
 one_node_roiSel: +1 roiSel_n9 +1 roiSel_n13 +1 roiSel_n14 +1 roiSel_n5 +1 roiSel_n4  = 1
 hw_n9: -31 b_n9 +8 calibre_n9 +3 roiSel_n9  <= 0
 hw_n2: -511 b_n2  <= 0
 hw_n13: -63 b_n13 +3 roiSel_n13  <= 0
 hw_n1: -63 b_n1 +5 imgQueue_n1 +5 snsQueue_n1 +5 ctrlQueue_n1 +4 rectify_n1  <= 0
 hw_n10: -255 b_n10  <= 0
 hw_n11: -31 b_n11  <= 0
 hw_n15: -31 b_n15 +5 imgQueue_n15 +5 snsQueue_n15 +5 ctrlQueue_n15 +4 visualizer_n15 +4 rectify_n15  <= 0
 hw_n8: -255 b_n8 +5 imgQueue_n8 +5 snsQueue_n8 +5 ctrlQueue_n8 +4 rectify_n8  <= 0
 hw_n14: -31 b_n14 +10 recognizer_n14 +8 calibre_n14 +3 roiSel_n14  <= 0
 hw_n12: -1023 b_n12 +50 mainDB_n12 +5 imgQueue_n12 +5 snsQueue_n12 +5 ctrlQueue_n12 +4 visualizer_n12 +4 rectify_n12  <= 0
 hw_n5: -1023 b_n5 +10 recognizer_n5 +8 calibre_n5 +3 roiSel_n5  <= 0
 hw_n4: -127 b_n4 +8 calibre_n4 +3 roiSel_n4  <= 0
 hw_n3: -31 b_n3  <= 0
 hw_n7: -255 b_n7 +5 imgQueue_n7 +5 snsQueue_n7 +5 ctrlQueue_n7 +4 rectify_n7  <= 0
 hw_n0: -255 b_n0 +5 imgQueue_n0 +5 snsQueue_n0 +5 ctrlQueue_n0 +4 rectify_n0  <= 0
 hw_n6: -127 b_n6 +8 calibre_n6  <= 0
 budget: +1 b_n9 +1 b_n2 +1 b_n13 +1 b_n1 +1 b_n10 +1 b_n11 +1 b_n15 +1 b_n8 +1 b_n14 +1 b_n12 +1 b_n5 +1 b_n4 +1 b_n3 +1 b_n7 +1 b_n0 +1 b_n6  <= 3
 lin_1_nutrient_n9_ctrlQueue_n15: +1 nutrient_n9_ctrlQueue_n15  <= 1
 lin_2_nutrient_n9_ctrlQueue_n15: -1 ctrlQueue_n15 +1 nutrient_n9_ctrlQueue_n15  <= 0
 lin_3_nutrient_n9_ctrlQueue_n15: -1 ctrlQueue_n15 +1 nutrient_n9_ctrlQueue_n15  >= 0
 nutrient_n9_ctrlQueue_n15_lat: +15 nutrient_n9_ctrlQueue_n15  <= 70
 n9_n15_bw_rhs: +72 nutrient_n9_ctrlQueue_n15  <= 47
 n9_n15_bw_lhs: +72 nutrient_n9_ctrlQueue_n15  >= 0
 lin_1_energy_n1_ctrlQueue_n12: +1 energy_n1_ctrlQueue_n12  <= 1
 lin_2_energy_n1_ctrlQueue_n12: -1 ctrlQueue_n12 +1 energy_n1_ctrlQueue_n12  <= 0
 lin_3_energy_n1_ctrlQueue_n12: -1 ctrlQueue_n12 +1 energy_n1_ctrlQueue_n12  >= 0
 energy_n1_ctrlQueue_n12_lat: +148 energy_n1_ctrlQueue_n12  <= 70
 lin_1_snsQueue_n1_mainDB_n12: -1 snsQueue_n1 +1 snsQueue_n1_mainDB_n12  <= 0
 lin_2_snsQueue_n1_mainDB_n12: -1 mainDB_n12 +1 snsQueue_n1_mainDB_n12  <= 0
 lin_3_snsQueue_n1_mainDB_n12: -1 mainDB_n12 -1 snsQueue_n1 +1 snsQueue_n1_mainDB_n12  >= -1
 snsQueue_n1_mainDB_n12_lat: +148 snsQueue_n1_mainDB_n12  <= 70
 lin_1_ctrlQueue_n1_mainDB_n12: -1 ctrlQueue_n1 +1 ctrlQueue_n1_mainDB_n12  <= 0
 lin_2_ctrlQueue_n1_mainDB_n12: -1 mainDB_n12 +1 ctrlQueue_n1_mainDB_n12  <= 0
 lin_3_ctrlQueue_n1_mainDB_n12: -1 mainDB_n12 -1 ctrlQueue_n1 +1 ctrlQueue_n1_mainDB_n12  >= -1
 ctrlQueue_n1_mainDB_n12_lat: +148 ctrlQueue_n1_mainDB_n12  <= 70
 lin_1_imgQueue_n1_mainDB_n12: -1 imgQueue_n1 +1 imgQueue_n1_mainDB_n12  <= 0
 lin_2_imgQueue_n1_mainDB_n12: -1 mainDB_n12 +1 imgQueue_n1_mainDB_n12  <= 0
 lin_3_imgQueue_n1_mainDB_n12: -1 mainDB_n12 -1 imgQueue_n1 +1 imgQueue_n1_mainDB_n12  >= -1
 imgQueue_n1_mainDB_n12_lat: +148 imgQueue_n1_mainDB_n12  <= 200
 lin_1_imgQueue_n1_rectify_n12: -1 imgQueue_n1 +1 imgQueue_n1_rectify_n12  <= 0
 lin_2_imgQueue_n1_rectify_n12: -1 rectify_n12 +1 imgQueue_n1_rectify_n12  <= 0
 lin_3_imgQueue_n1_rectify_n12: -1 imgQueue_n1 -1 rectify_n12 +1 imgQueue_n1_rectify_n12  >= -1
 imgQueue_n1_rectify_n12_lat: +148 imgQueue_n1_rectify_n12  <= 30
 lin_1_imgQueue_n1_visualizer_n12: -1 imgQueue_n1 +1 imgQueue_n1_visualizer_n12  <= 0
 lin_2_imgQueue_n1_visualizer_n12: -1 visualizer_n12 +1 imgQueue_n1_visualizer_n12  <= 0
 lin_3_imgQueue_n1_visualizer_n12: -1 imgQueue_n1 -1 visualizer_n12 +1 imgQueue_n1_visualizer_n12  >= -1
 imgQueue_n1_visualizer_n12_lat: +148 imgQueue_n1_visualizer_n12  <= 50
 n1_n12_bw_rhs: +72 energy_n1_ctrlQueue_n12 +72 snsQueue_n1_mainDB_n12 +72 ctrlQueue_n1_mainDB_n12 +72 imgQueue_n1_mainDB_n12 +72 imgQueue_n1_rectify_n12 +72 imgQueue_n1_visualizer_n12  <= 47
 n1_n12_bw_lhs: +72 energy_n1_ctrlQueue_n12 +72 snsQueue_n1_mainDB_n12 +72 ctrlQueue_n1_mainDB_n12 +72 imgQueue_n1_mainDB_n12 +72 imgQueue_n1_rectify_n12 +72 imgQueue_n1_visualizer_n12  >= 0
 lin_1_imgQueue_n1_calibre_n5: -1 imgQueue_n1 +1 imgQueue_n1_calibre_n5  <= 0
 lin_2_imgQueue_n1_calibre_n5: -1 calibre_n5 +1 imgQueue_n1_calibre_n5  <= 0
 lin_3_imgQueue_n1_calibre_n5: -1 imgQueue_n1 -1 calibre_n5 +1 imgQueue_n1_calibre_n5  >= -1
 imgQueue_n1_calibre_n5_lat: +148 imgQueue_n1_calibre_n5  <= 30
 lin_1_rectify_n1_roiSel_n5: -1 rectify_n1 +1 rectify_n1_roiSel_n5  <= 0
 lin_2_rectify_n1_roiSel_n5: -1 roiSel_n5 +1 rectify_n1_roiSel_n5  <= 0
 lin_3_rectify_n1_roiSel_n5: -1 rectify_n1 -1 roiSel_n5 +1 rectify_n1_roiSel_n5  >= -1
 rectify_n1_roiSel_n5_lat: +148 rectify_n1_roiSel_n5  <= 40
 lin_1_rectify_n1_recognizer_n5: -1 rectify_n1 +1 rectify_n1_recognizer_n5  <= 0
 lin_2_rectify_n1_recognizer_n5: -1 recognizer_n5 +1 rectify_n1_recognizer_n5  <= 0
 lin_3_rectify_n1_recognizer_n5: -1 recognizer_n5 -1 rectify_n1 +1 rectify_n1_recognizer_n5  >= -1
 rectify_n1_recognizer_n5_lat: +148 rectify_n1_recognizer_n5  <= 40
 n1_n5_bw_rhs: +72 imgQueue_n1_calibre_n5 +72 rectify_n1_roiSel_n5 +72 rectify_n1_recognizer_n5  <= 47
 n1_n5_bw_lhs: +72 imgQueue_n1_calibre_n5 +72 rectify_n1_roiSel_n5 +72 rectify_n1_recognizer_n5  >= 0
 lin_1_energy_n1_ctrlQueue_n15: +1 energy_n1_ctrlQueue_n15  <= 1
 lin_2_energy_n1_ctrlQueue_n15: -1 ctrlQueue_n15 +1 energy_n1_ctrlQueue_n15  <= 0
 lin_3_energy_n1_ctrlQueue_n15: -1 ctrlQueue_n15 +1 energy_n1_ctrlQueue_n15  >= 0
 energy_n1_ctrlQueue_n15_lat: +2 energy_n1_ctrlQueue_n15  <= 70
 lin_1_imgQueue_n1_rectify_n15: -1 imgQueue_n1 +1 imgQueue_n1_rectify_n15  <= 0
 lin_2_imgQueue_n1_rectify_n15: -1 rectify_n15 +1 imgQueue_n1_rectify_n15  <= 0
 lin_3_imgQueue_n1_rectify_n15: -1 imgQueue_n1 -1 rectify_n15 +1 imgQueue_n1_rectify_n15  >= -1
 imgQueue_n1_rectify_n15_lat: +2 imgQueue_n1_rectify_n15  <= 30
 lin_1_imgQueue_n1_visualizer_n15: -1 imgQueue_n1 +1 imgQueue_n1_visualizer_n15  <= 0
 lin_2_imgQueue_n1_visualizer_n15: -1 visualizer_n15 +1 imgQueue_n1_visualizer_n15  <= 0
 lin_3_imgQueue_n1_visualizer_n15: -1 imgQueue_n1 -1 visualizer_n15 +1 imgQueue_n1_visualizer_n15  >= -1
 imgQueue_n1_visualizer_n15_lat: +2 imgQueue_n1_visualizer_n15  <= 50
 n1_n15_bw_rhs: +72 energy_n1_ctrlQueue_n15 +72 imgQueue_n1_rectify_n15 +72 imgQueue_n1_visualizer_n15  <= 17
 n1_n15_bw_lhs: +72 energy_n1_ctrlQueue_n15 +72 imgQueue_n1_rectify_n15 +72 imgQueue_n1_visualizer_n15  >= 0
 lin_1_snsQueue_n8_mainDB_n12: -1 snsQueue_n8 +1 snsQueue_n8_mainDB_n12  <= 0
 lin_2_snsQueue_n8_mainDB_n12: -1 mainDB_n12 +1 snsQueue_n8_mainDB_n12  <= 0
 lin_3_snsQueue_n8_mainDB_n12: -1 mainDB_n12 -1 snsQueue_n8 +1 snsQueue_n8_mainDB_n12  >= -1
 snsQueue_n8_mainDB_n12_lat: +135 snsQueue_n8_mainDB_n12  <= 70
 lin_1_ctrlQueue_n8_mainDB_n12: -1 ctrlQueue_n8 +1 ctrlQueue_n8_mainDB_n12  <= 0
 lin_2_ctrlQueue_n8_mainDB_n12: -1 mainDB_n12 +1 ctrlQueue_n8_mainDB_n12  <= 0
 lin_3_ctrlQueue_n8_mainDB_n12: -1 mainDB_n12 -1 ctrlQueue_n8 +1 ctrlQueue_n8_mainDB_n12  >= -1
 ctrlQueue_n8_mainDB_n12_lat: +135 ctrlQueue_n8_mainDB_n12  <= 70
 lin_1_imgQueue_n8_mainDB_n12: -1 imgQueue_n8 +1 imgQueue_n8_mainDB_n12  <= 0
 lin_2_imgQueue_n8_mainDB_n12: -1 mainDB_n12 +1 imgQueue_n8_mainDB_n12  <= 0
 lin_3_imgQueue_n8_mainDB_n12: -1 mainDB_n12 -1 imgQueue_n8 +1 imgQueue_n8_mainDB_n12  >= -1
 imgQueue_n8_mainDB_n12_lat: +135 imgQueue_n8_mainDB_n12  <= 200
 lin_1_imgQueue_n8_rectify_n12: -1 imgQueue_n8 +1 imgQueue_n8_rectify_n12  <= 0
 lin_2_imgQueue_n8_rectify_n12: -1 rectify_n12 +1 imgQueue_n8_rectify_n12  <= 0
 lin_3_imgQueue_n8_rectify_n12: -1 imgQueue_n8 -1 rectify_n12 +1 imgQueue_n8_rectify_n12  >= -1
 imgQueue_n8_rectify_n12_lat: +135 imgQueue_n8_rectify_n12  <= 30
 lin_1_imgQueue_n8_visualizer_n12: -1 imgQueue_n8 +1 imgQueue_n8_visualizer_n12  <= 0
 lin_2_imgQueue_n8_visualizer_n12: -1 visualizer_n12 +1 imgQueue_n8_visualizer_n12  <= 0
 lin_3_imgQueue_n8_visualizer_n12: -1 imgQueue_n8 -1 visualizer_n12 +1 imgQueue_n8_visualizer_n12  >= -1
 imgQueue_n8_visualizer_n12_lat: +135 imgQueue_n8_visualizer_n12  <= 50
 n8_n12_bw_rhs: +72 snsQueue_n8_mainDB_n12 +72 ctrlQueue_n8_mainDB_n12 +72 imgQueue_n8_mainDB_n12 +72 imgQueue_n8_rectify_n12 +72 imgQueue_n8_visualizer_n12  <= 97
 n8_n12_bw_lhs: +72 snsQueue_n8_mainDB_n12 +72 ctrlQueue_n8_mainDB_n12 +72 imgQueue_n8_mainDB_n12 +72 imgQueue_n8_rectify_n12 +72 imgQueue_n8_visualizer_n12  >= 0
 lin_1_imgQueue_n8_calibre_n9: -1 imgQueue_n8 +1 imgQueue_n8_calibre_n9  <= 0
 lin_2_imgQueue_n8_calibre_n9: -1 calibre_n9 +1 imgQueue_n8_calibre_n9  <= 0
 lin_3_imgQueue_n8_calibre_n9: -1 imgQueue_n8 -1 calibre_n9 +1 imgQueue_n8_calibre_n9  >= -1
 imgQueue_n8_calibre_n9_lat: +15 imgQueue_n8_calibre_n9  <= 30
 lin_1_rectify_n8_roiSel_n9: -1 rectify_n8 +1 rectify_n8_roiSel_n9  <= 0
 lin_2_rectify_n8_roiSel_n9: -1 roiSel_n9 +1 rectify_n8_roiSel_n9  <= 0
 lin_3_rectify_n8_roiSel_n9: -1 rectify_n8 -1 roiSel_n9 +1 rectify_n8_roiSel_n9  >= -1
 rectify_n8_roiSel_n9_lat: +15 rectify_n8_roiSel_n9  <= 40
 n8_n9_bw_rhs: +72 imgQueue_n8_calibre_n9 +72 rectify_n8_roiSel_n9  <= 32
 n8_n9_bw_lhs: +72 imgQueue_n8_calibre_n9 +72 rectify_n8_roiSel_n9  >= 0
 lin_1_imgQueue_n12_calibre_n14: -1 imgQueue_n12 +1 imgQueue_n12_calibre_n14  <= 0
 lin_2_imgQueue_n12_calibre_n14: -1 calibre_n14 +1 imgQueue_n12_calibre_n14  <= 0
 lin_3_imgQueue_n12_calibre_n14: -1 imgQueue_n12 -1 calibre_n14 +1 imgQueue_n12_calibre_n14  >= -1
 imgQueue_n12_calibre_n14_lat: +150 imgQueue_n12_calibre_n14  <= 30
 lin_1_rectify_n12_roiSel_n14: -1 rectify_n12 +1 rectify_n12_roiSel_n14  <= 0
 lin_2_rectify_n12_roiSel_n14: -1 roiSel_n14 +1 rectify_n12_roiSel_n14  <= 0
 lin_3_rectify_n12_roiSel_n14: -1 rectify_n12 -1 roiSel_n14 +1 rectify_n12_roiSel_n14  >= -1
 rectify_n12_roiSel_n14_lat: +150 rectify_n12_roiSel_n14  <= 40
 lin_1_rectify_n12_recognizer_n14: -1 rectify_n12 +1 rectify_n12_recognizer_n14  <= 0
 lin_2_rectify_n12_recognizer_n14: -1 recognizer_n14 +1 rectify_n12_recognizer_n14  <= 0
 lin_3_rectify_n12_recognizer_n14: -1 recognizer_n14 -1 rectify_n12 +1 rectify_n12_recognizer_n14  >= -1
 rectify_n12_recognizer_n14_lat: +150 rectify_n12_recognizer_n14  <= 40
 n12_n14_bw_rhs: +72 imgQueue_n12_calibre_n14 +72 rectify_n12_roiSel_n14 +72 rectify_n12_recognizer_n14  <= 15
 n12_n14_bw_lhs: +72 imgQueue_n12_calibre_n14 +72 rectify_n12_roiSel_n14 +72 rectify_n12_recognizer_n14  >= 0
 lin_1_calibre_n5_piCamera2_n6: -1 calibre_n5 +1 calibre_n5_piCamera2_n6  <= 0
 lin_2_calibre_n5_piCamera2_n6: +1 calibre_n5_piCamera2_n6  <= 1
 lin_3_calibre_n5_piCamera2_n6: -1 calibre_n5 +1 calibre_n5_piCamera2_n6  >= 0
 calibre_n5_piCamera2_n6_lat: +135 calibre_n5_piCamera2_n6  <= 30
 n5_n6_bw_rhs: +72 calibre_n5_piCamera2_n6  <= 97
 n5_n6_bw_lhs: +72 calibre_n5_piCamera2_n6  >= 0
 lin_1_recognizer_n5_visualizer_n12: -1 recognizer_n5 +1 recognizer_n5_visualizer_n12  <= 0
 lin_2_recognizer_n5_visualizer_n12: -1 visualizer_n12 +1 recognizer_n5_visualizer_n12  <= 0
 lin_3_recognizer_n5_visualizer_n12: -1 recognizer_n5 -1 visualizer_n12 +1 recognizer_n5_visualizer_n12  >= -1
 recognizer_n5_visualizer_n12_lat: +20 recognizer_n5_visualizer_n12  <= 50
 n5_n12_bw_rhs: +72 recognizer_n5_visualizer_n12  <= 997
 n5_n12_bw_lhs: +72 recognizer_n5_visualizer_n12  >= 0
 lin_1_recognizer_n5_visualizer_n15: -1 recognizer_n5 +1 recognizer_n5_visualizer_n15  <= 0
 lin_2_recognizer_n5_visualizer_n15: -1 visualizer_n15 +1 recognizer_n5_visualizer_n15  <= 0
 lin_3_recognizer_n5_visualizer_n15: -1 recognizer_n5 -1 visualizer_n15 +1 recognizer_n5_visualizer_n15  >= -1
 recognizer_n5_visualizer_n15_lat: +150 recognizer_n5_visualizer_n15  <= 50
 n5_n15_bw_rhs: +72 recognizer_n5_visualizer_n15  <= 15
 n5_n15_bw_lhs: +72 recognizer_n5_visualizer_n15  >= 0
 lin_1_calibre_n4_piCamera2_n6: -1 calibre_n4 +1 calibre_n4_piCamera2_n6  <= 0
 lin_2_calibre_n4_piCamera2_n6: +1 calibre_n4_piCamera2_n6  <= 1
 lin_3_calibre_n4_piCamera2_n6: -1 calibre_n4 +1 calibre_n4_piCamera2_n6  >= 0
 calibre_n4_piCamera2_n6_lat: +20 calibre_n4_piCamera2_n6  <= 30
 n4_n6_bw_rhs: +72 calibre_n4_piCamera2_n6  <= 97
 n4_n6_bw_lhs: +72 calibre_n4_piCamera2_n6  >= 0
 lin_1_calibre_n4_recognizer_n5: -1 calibre_n4 +1 calibre_n4_recognizer_n5  <= 0
 lin_2_calibre_n4_recognizer_n5: -1 recognizer_n5 +1 calibre_n4_recognizer_n5  <= 0
 lin_3_calibre_n4_recognizer_n5: -1 recognizer_n5 -1 calibre_n4 +1 calibre_n4_recognizer_n5  >= -1
 calibre_n4_recognizer_n5_lat: +135 calibre_n4_recognizer_n5  <= 30
 lin_1_roiSel_n4_recognizer_n5: -1 roiSel_n4 +1 roiSel_n4_recognizer_n5  <= 0
 lin_2_roiSel_n4_recognizer_n5: -1 recognizer_n5 +1 roiSel_n4_recognizer_n5  <= 0
 lin_3_roiSel_n4_recognizer_n5: -1 recognizer_n5 -1 roiSel_n4 +1 roiSel_n4_recognizer_n5  >= -1
 roiSel_n4_recognizer_n5_lat: +135 roiSel_n4_recognizer_n5  <= 40
 n4_n5_bw_rhs: +72 calibre_n4_recognizer_n5 +72 roiSel_n4_recognizer_n5  <= 97
 n4_n5_bw_lhs: +72 calibre_n4_recognizer_n5 +72 roiSel_n4_recognizer_n5  >= 0
 lin_1_imgQueue_n7_calibre_n9: -1 imgQueue_n7 +1 imgQueue_n7_calibre_n9  <= 0
 lin_2_imgQueue_n7_calibre_n9: -1 calibre_n9 +1 imgQueue_n7_calibre_n9  <= 0
 lin_3_imgQueue_n7_calibre_n9: -1 imgQueue_n7 -1 calibre_n9 +1 imgQueue_n7_calibre_n9  >= -1
 imgQueue_n7_calibre_n9_lat: +20 imgQueue_n7_calibre_n9  <= 30
 lin_1_rectify_n7_roiSel_n9: -1 rectify_n7 +1 rectify_n7_roiSel_n9  <= 0
 lin_2_rectify_n7_roiSel_n9: -1 roiSel_n9 +1 rectify_n7_roiSel_n9  <= 0
 lin_3_rectify_n7_roiSel_n9: -1 rectify_n7 -1 roiSel_n9 +1 rectify_n7_roiSel_n9  >= -1
 rectify_n7_roiSel_n9_lat: +20 rectify_n7_roiSel_n9  <= 40
 n7_n9_bw_rhs: +72 imgQueue_n7_calibre_n9 +72 rectify_n7_roiSel_n9  <= 997
 n7_n9_bw_lhs: +72 imgQueue_n7_calibre_n9 +72 rectify_n7_roiSel_n9  >= 0
 lin_1_imgQueue_n0_calibre_n14: -1 imgQueue_n0 +1 imgQueue_n0_calibre_n14  <= 0
 lin_2_imgQueue_n0_calibre_n14: -1 calibre_n14 +1 imgQueue_n0_calibre_n14  <= 0
 lin_3_imgQueue_n0_calibre_n14: -1 imgQueue_n0 -1 calibre_n14 +1 imgQueue_n0_calibre_n14  >= -1
 imgQueue_n0_calibre_n14_lat: +15 imgQueue_n0_calibre_n14  <= 30
 lin_1_rectify_n0_roiSel_n14: -1 rectify_n0 +1 rectify_n0_roiSel_n14  <= 0
 lin_2_rectify_n0_roiSel_n14: -1 roiSel_n14 +1 rectify_n0_roiSel_n14  <= 0
 lin_3_rectify_n0_roiSel_n14: -1 rectify_n0 -1 roiSel_n14 +1 rectify_n0_roiSel_n14  >= -1
 rectify_n0_roiSel_n14_lat: +15 rectify_n0_roiSel_n14  <= 40
 lin_1_rectify_n0_recognizer_n14: -1 rectify_n0 +1 rectify_n0_recognizer_n14  <= 0
 lin_2_rectify_n0_recognizer_n14: -1 recognizer_n14 +1 rectify_n0_recognizer_n14  <= 0
 lin_3_rectify_n0_recognizer_n14: -1 recognizer_n14 -1 rectify_n0 +1 rectify_n0_recognizer_n14  >= -1
 rectify_n0_recognizer_n14_lat: +15 rectify_n0_recognizer_n14  <= 40
 n0_n14_bw_rhs: +72 imgQueue_n0_calibre_n14 +72 rectify_n0_roiSel_n14 +72 rectify_n0_recognizer_n14  <= 32
 n0_n14_bw_lhs: +72 imgQueue_n0_calibre_n14 +72 rectify_n0_roiSel_n14 +72 rectify_n0_recognizer_n14  >= 0
 lin_1_imgQueue_n0_calibre_n6: -1 imgQueue_n0 +1 imgQueue_n0_calibre_n6  <= 0
 lin_2_imgQueue_n0_calibre_n6: -1 calibre_n6 +1 imgQueue_n0_calibre_n6  <= 0
 lin_3_imgQueue_n0_calibre_n6: -1 imgQueue_n0 -1 calibre_n6 +1 imgQueue_n0_calibre_n6  >= -1
 imgQueue_n0_calibre_n6_lat: +20 imgQueue_n0_calibre_n6  <= 30
 n0_n6_bw_rhs: +72 imgQueue_n0_calibre_n6  <= 97
 n0_n6_bw_lhs: +72 imgQueue_n0_calibre_n6  >= 0
 lin_1_water_n0_snsQueue_n1: +1 water_n0_snsQueue_n1  <= 1
 lin_2_water_n0_snsQueue_n1: -1 snsQueue_n1 +1 water_n0_snsQueue_n1  <= 0
 lin_3_water_n0_snsQueue_n1: -1 snsQueue_n1 +1 water_n0_snsQueue_n1  >= 0
 water_n0_snsQueue_n1_lat: +13 water_n0_snsQueue_n1  <= 70
 lin_1_imgQueue_n0_rectify_n1: -1 imgQueue_n0 +1 imgQueue_n0_rectify_n1  <= 0
 lin_2_imgQueue_n0_rectify_n1: -1 rectify_n1 +1 imgQueue_n0_rectify_n1  <= 0
 lin_3_imgQueue_n0_rectify_n1: -1 imgQueue_n0 -1 rectify_n1 +1 imgQueue_n0_rectify_n1  >= -1
 imgQueue_n0_rectify_n1_lat: +13 imgQueue_n0_rectify_n1  <= 30
 n0_n1_bw_rhs: +72 water_n0_snsQueue_n1 +72 imgQueue_n0_rectify_n1  <= 47
 n0_n1_bw_lhs: +72 water_n0_snsQueue_n1 +72 imgQueue_n0_rectify_n1  >= 0
 lin_1_water_n0_snsQueue_n8: +1 water_n0_snsQueue_n8  <= 1
 lin_2_water_n0_snsQueue_n8: -1 snsQueue_n8 +1 water_n0_snsQueue_n8  <= 0
 lin_3_water_n0_snsQueue_n8: -1 snsQueue_n8 +1 water_n0_snsQueue_n8  >= 0
 water_n0_snsQueue_n8_lat: +20 water_n0_snsQueue_n8  <= 70
 lin_1_imgQueue_n0_rectify_n8: -1 imgQueue_n0 +1 imgQueue_n0_rectify_n8  <= 0
 lin_2_imgQueue_n0_rectify_n8: -1 rectify_n8 +1 imgQueue_n0_rectify_n8  <= 0
 lin_3_imgQueue_n0_rectify_n8: -1 imgQueue_n0 -1 rectify_n8 +1 imgQueue_n0_rectify_n8  >= -1
 imgQueue_n0_rectify_n8_lat: +20 imgQueue_n0_rectify_n8  <= 30
 n0_n8_bw_rhs: +72 water_n0_snsQueue_n8 +72 imgQueue_n0_rectify_n8  <= 97
 n0_n8_bw_lhs: +72 water_n0_snsQueue_n8 +72 imgQueue_n0_rectify_n8  >= 0
 lin_1_water_n0_snsQueue_n7: +1 water_n0_snsQueue_n7  <= 1
 lin_2_water_n0_snsQueue_n7: -1 snsQueue_n7 +1 water_n0_snsQueue_n7  <= 0
 lin_3_water_n0_snsQueue_n7: -1 snsQueue_n7 +1 water_n0_snsQueue_n7  >= 0
 water_n0_snsQueue_n7_lat: +25 water_n0_snsQueue_n7  <= 70
 lin_1_imgQueue_n0_rectify_n7: -1 imgQueue_n0 +1 imgQueue_n0_rectify_n7  <= 0
 lin_2_imgQueue_n0_rectify_n7: -1 rectify_n7 +1 imgQueue_n0_rectify_n7  <= 0
 lin_3_imgQueue_n0_rectify_n7: -1 imgQueue_n0 -1 rectify_n7 +1 imgQueue_n0_rectify_n7  >= -1
 imgQueue_n0_rectify_n7_lat: +25 imgQueue_n0_rectify_n7  <= 30
 n0_n7_bw_rhs: +72 water_n0_snsQueue_n7 +72 imgQueue_n0_rectify_n7  <= 47
 n0_n7_bw_lhs: +72 water_n0_snsQueue_n7 +72 imgQueue_n0_rectify_n7  >= 0
 lin_1_imgQueue_n0_calibre_n5: -1 imgQueue_n0 +1 imgQueue_n0_calibre_n5  <= 0
 lin_2_imgQueue_n0_calibre_n5: -1 calibre_n5 +1 imgQueue_n0_calibre_n5  <= 0
 lin_3_imgQueue_n0_calibre_n5: -1 imgQueue_n0 -1 calibre_n5 +1 imgQueue_n0_calibre_n5  >= -1
 imgQueue_n0_calibre_n5_lat: +135 imgQueue_n0_calibre_n5  <= 30
 lin_1_rectify_n0_roiSel_n5: -1 rectify_n0 +1 rectify_n0_roiSel_n5  <= 0
 lin_2_rectify_n0_roiSel_n5: -1 roiSel_n5 +1 rectify_n0_roiSel_n5  <= 0
 lin_3_rectify_n0_roiSel_n5: -1 rectify_n0 -1 roiSel_n5 +1 rectify_n0_roiSel_n5  >= -1
 rectify_n0_roiSel_n5_lat: +135 rectify_n0_roiSel_n5  <= 40
 lin_1_rectify_n0_recognizer_n5: -1 rectify_n0 +1 rectify_n0_recognizer_n5  <= 0
 lin_2_rectify_n0_recognizer_n5: -1 recognizer_n5 +1 rectify_n0_recognizer_n5  <= 0
 lin_3_rectify_n0_recognizer_n5: -1 recognizer_n5 -1 rectify_n0 +1 rectify_n0_recognizer_n5  >= -1
 rectify_n0_recognizer_n5_lat: +135 rectify_n0_recognizer_n5  <= 40
 n0_n5_bw_rhs: +72 imgQueue_n0_calibre_n5 +72 rectify_n0_roiSel_n5 +72 rectify_n0_recognizer_n5  <= 97
 n0_n5_bw_lhs: +72 imgQueue_n0_calibre_n5 +72 rectify_n0_roiSel_n5 +72 rectify_n0_recognizer_n5  >= 0
 lin_1_imgQueue_n0_calibre_n9: -1 imgQueue_n0 +1 imgQueue_n0_calibre_n9  <= 0
 lin_2_imgQueue_n0_calibre_n9: -1 calibre_n9 +1 imgQueue_n0_calibre_n9  <= 0
 lin_3_imgQueue_n0_calibre_n9: -1 imgQueue_n0 -1 calibre_n9 +1 imgQueue_n0_calibre_n9  >= -1
 imgQueue_n0_calibre_n9_lat: +15 imgQueue_n0_calibre_n9  <= 30
 lin_1_rectify_n0_roiSel_n9: -1 rectify_n0 +1 rectify_n0_roiSel_n9  <= 0
 lin_2_rectify_n0_roiSel_n9: -1 roiSel_n9 +1 rectify_n0_roiSel_n9  <= 0
 lin_3_rectify_n0_roiSel_n9: -1 rectify_n0 -1 roiSel_n9 +1 rectify_n0_roiSel_n9  >= -1
 rectify_n0_roiSel_n9_lat: +15 rectify_n0_roiSel_n9  <= 40
 n0_n9_bw_rhs: +72 imgQueue_n0_calibre_n9 +72 rectify_n0_roiSel_n9  <= 32
 n0_n9_bw_lhs: +72 imgQueue_n0_calibre_n9 +72 rectify_n0_roiSel_n9  >= 0
 lin_1_imgQueue_n0_calibre_n4: -1 imgQueue_n0 +1 imgQueue_n0_calibre_n4  <= 0
 lin_2_imgQueue_n0_calibre_n4: -1 calibre_n4 +1 imgQueue_n0_calibre_n4  <= 0
 lin_3_imgQueue_n0_calibre_n4: -1 imgQueue_n0 -1 calibre_n4 +1 imgQueue_n0_calibre_n4  >= -1
 imgQueue_n0_calibre_n4_lat: +20 imgQueue_n0_calibre_n4  <= 30
 lin_1_rectify_n0_roiSel_n4: -1 rectify_n0 +1 rectify_n0_roiSel_n4  <= 0
 lin_2_rectify_n0_roiSel_n4: -1 roiSel_n4 +1 rectify_n0_roiSel_n4  <= 0
 lin_3_rectify_n0_roiSel_n4: -1 rectify_n0 -1 roiSel_n4 +1 rectify_n0_roiSel_n4  >= -1
 rectify_n0_roiSel_n4_lat: +20 rectify_n0_roiSel_n4  <= 40
 n0_n4_bw_rhs: +72 imgQueue_n0_calibre_n4 +72 rectify_n0_roiSel_n4  <= 97
 n0_n4_bw_lhs: +72 imgQueue_n0_calibre_n4 +72 rectify_n0_roiSel_n4  >= 0
 lin_1_soil_n6_snsQueue_n7: +1 soil_n6_snsQueue_n7  <= 1
 lin_2_soil_n6_snsQueue_n7: -1 snsQueue_n7 +1 soil_n6_snsQueue_n7  <= 0
 lin_3_soil_n6_snsQueue_n7: -1 snsQueue_n7 +1 soil_n6_snsQueue_n7  >= 0
 soil_n6_snsQueue_n7_lat: +25 soil_n6_snsQueue_n7  <= 70
 lin_1_piCamera2_n6_imgQueue_n7: +1 piCamera2_n6_imgQueue_n7  <= 1
 lin_2_piCamera2_n6_imgQueue_n7: -1 imgQueue_n7 +1 piCamera2_n6_imgQueue_n7  <= 0
 lin_3_piCamera2_n6_imgQueue_n7: -1 imgQueue_n7 +1 piCamera2_n6_imgQueue_n7  >= 0
 piCamera2_n6_imgQueue_n7_lat: +25 piCamera2_n6_imgQueue_n7  <= 100
 n6_n7_bw_rhs: +72 soil_n6_snsQueue_n7 +72 piCamera2_n6_imgQueue_n7  <= 47
 n6_n7_bw_lhs: +72 soil_n6_snsQueue_n7 +72 piCamera2_n6_imgQueue_n7  >= 0
 lin_1_calibre_n6_recognizer_n14: -1 calibre_n6 +1 calibre_n6_recognizer_n14  <= 0
 lin_2_calibre_n6_recognizer_n14: -1 recognizer_n14 +1 calibre_n6_recognizer_n14  <= 0
 lin_3_calibre_n6_recognizer_n14: -1 recognizer_n14 -1 calibre_n6 +1 calibre_n6_recognizer_n14  >= -1
 calibre_n6_recognizer_n14_lat: +15 calibre_n6_recognizer_n14  <= 30
 n6_n14_bw_rhs: +72 calibre_n6_recognizer_n14  <= 32
 n6_n14_bw_lhs: +72 calibre_n6_recognizer_n14  >= 0
 lin_1_soil_n6_snsQueue_n8: +1 soil_n6_snsQueue_n8  <= 1
 lin_2_soil_n6_snsQueue_n8: -1 snsQueue_n8 +1 soil_n6_snsQueue_n8  <= 0
 lin_3_soil_n6_snsQueue_n8: -1 snsQueue_n8 +1 soil_n6_snsQueue_n8  >= 0
 soil_n6_snsQueue_n8_lat: +20 soil_n6_snsQueue_n8  <= 70
 lin_1_piCamera2_n6_imgQueue_n8: +1 piCamera2_n6_imgQueue_n8  <= 1
 lin_2_piCamera2_n6_imgQueue_n8: -1 imgQueue_n8 +1 piCamera2_n6_imgQueue_n8  <= 0
 lin_3_piCamera2_n6_imgQueue_n8: -1 imgQueue_n8 +1 piCamera2_n6_imgQueue_n8  >= 0
 piCamera2_n6_imgQueue_n8_lat: +20 piCamera2_n6_imgQueue_n8  <= 100
 n6_n8_bw_rhs: +72 soil_n6_snsQueue_n8 +72 piCamera2_n6_imgQueue_n8  <= 97
 n6_n8_bw_lhs: +72 soil_n6_snsQueue_n8 +72 piCamera2_n6_imgQueue_n8  >= 0
 one_link_soil_snsQueue: +1 soil_n6_snsQueue_n8  = 1
 one_link_heat_snsQueue:  = 1
 one_link_water_snsQueue: +1 water_n0_snsQueue_n7  = 1
 one_link_nutrient_ctrlQueue: +1 nutrient_n9_ctrlQueue_n15  = 1
 one_link_energy_ctrlQueue: +1 energy_n1_ctrlQueue_n15  = 1
 one_link_piCamera1_imgQueue:  = 1
 one_link_piCamera2_imgQueue: +1 piCamera2_n6_imgQueue_n8  = 1
 one_link_snsQueue_mainDB: +1 snsQueue_n8_mainDB_n12  = 1
 one_link_ctrlQueue_mainDB: +1 ctrlQueue_n8_mainDB_n12  = 1
 one_link_imgQueue_mainDB: +1 imgQueue_n8_mainDB_n12  = 1
 one_link_imgQueue_calibre: +1 imgQueue_n0_calibre_n4  = 1
 one_link_calibre_piCamera1:  = 1
 one_link_calibre_piCamera2: +1 calibre_n4_piCamera2_n6  = 1
 one_link_imgQueue_rectify: +1 imgQueue_n0_rectify_n7  = 1
 one_link_rectify_roiSel: +1 rectify_n0_roiSel_n4  = 1
 one_link_rectify_recognizer: +1 rectify_n0_recognizer_n5  = 1
 one_link_calibre_recognizer: +1 calibre_n6_recognizer_n14  = 1
 one_link_roiSel_recognizer: +1 roiSel_n4_recognizer_n5  = 1
 one_link_recognizer_visualizer: +1 recognizer_n5_visualizer_n15  = 1
 one_link_imgQueue_visualizer: +1 imgQueue_n8_visualizer_n12  = 1
 one_link_visualizer_arViewer: +1 calibre_n6_piCamera2_n6 +1 imgQueue_n1_rectify_n1 +1 imgQueue_n8_rectify_n8 +1 imgQueue_n7_rectify_n7 +1 imgQueue_n0_rectify_n0 +1 roiSel_n14_recognizer_n14 +1 roiSel_n5_recognizer_n5 +1 imgQueue_n12_visualizer_n12 +1 imgQueue_n15_visualizer_n15  = 1
Bounds
 0 <= b_n9 <= 1
 0 <= b_n2 <= 1
 0 <= b_n13 <= 1
 0 <= b_n1 <= 1
 0 <= b_n10 <= 1
 0 <= b_n11 <= 1
 0 <= b_n15 <= 1
 0 <= b_n8 <= 1
 0 <= b_n14 <= 1
 0 <= b_n12 <= 1
 0 <= b_n5 <= 1
 0 <= b_n4 <= 1
 0 <= b_n3 <= 1
 0 <= b_n7 <= 1
 0 <= b_n0 <= 1
 0 <= b_n6 <= 1
 0 <= mainDB_n12 <= 1
 0 <= imgQueue_n1 <= 1
 0 <= imgQueue_n15 <= 1
 0 <= imgQueue_n8 <= 1
 0 <= imgQueue_n12 <= 1
 0 <= imgQueue_n7 <= 1
 0 <= imgQueue_n0 <= 1
 0 <= snsQueue_n1 <= 1
 0 <= snsQueue_n15 <= 1
 0 <= snsQueue_n8 <= 1
 0 <= snsQueue_n12 <= 1
 0 <= snsQueue_n7 <= 1
 0 <= snsQueue_n0 <= 1
 0 <= ctrlQueue_n1 <= 1
 0 <= ctrlQueue_n15 <= 1
 0 <= ctrlQueue_n8 <= 1
 0 <= ctrlQueue_n12 <= 1
 0 <= ctrlQueue_n7 <= 1
 0 <= ctrlQueue_n0 <= 1
 0 <= recognizer_n14 <= 1
 0 <= recognizer_n5 <= 1
 0 <= visualizer_n15 <= 1
 0 <= visualizer_n12 <= 1
 0 <= calibre_n9 <= 1
 0 <= calibre_n14 <= 1
 0 <= calibre_n5 <= 1
 0 <= calibre_n4 <= 1
 0 <= calibre_n6 <= 1
 0 <= rectify_n1 <= 1
 0 <= rectify_n15 <= 1
 0 <= rectify_n8 <= 1
 0 <= rectify_n12 <= 1
 0 <= rectify_n7 <= 1
 0 <= rectify_n0 <= 1
 0 <= roiSel_n9 <= 1
 0 <= roiSel_n13 <= 1
 0 <= roiSel_n14 <= 1
 0 <= roiSel_n5 <= 1
 0 <= roiSel_n4 <= 1
 0 <= nutrient_n9_ctrlQueue_n15 <= 1
 0 <= energy_n1_ctrlQueue_n12 <= 1
 0 <= snsQueue_n1_mainDB_n12 <= 1
 0 <= ctrlQueue_n1_mainDB_n12 <= 1
 0 <= imgQueue_n1_mainDB_n12 <= 1
 0 <= imgQueue_n1_rectify_n12 <= 1
 0 <= imgQueue_n1_visualizer_n12 <= 1
 0 <= imgQueue_n1_calibre_n5 <= 1
 0 <= rectify_n1_roiSel_n5 <= 1
 0 <= rectify_n1_recognizer_n5 <= 1
 0 <= energy_n1_ctrlQueue_n15 <= 1
 0 <= imgQueue_n1_rectify_n15 <= 1
 0 <= imgQueue_n1_visualizer_n15 <= 1
 0 <= snsQueue_n8_mainDB_n12 <= 1
 0 <= ctrlQueue_n8_mainDB_n12 <= 1
 0 <= imgQueue_n8_mainDB_n12 <= 1
 0 <= imgQueue_n8_rectify_n12 <= 1
 0 <= imgQueue_n8_visualizer_n12 <= 1
 0 <= imgQueue_n8_calibre_n9 <= 1
 0 <= rectify_n8_roiSel_n9 <= 1
 0 <= imgQueue_n12_calibre_n14 <= 1
 0 <= rectify_n12_roiSel_n14 <= 1
 0 <= rectify_n12_recognizer_n14 <= 1
 0 <= calibre_n5_piCamera2_n6 <= 1
 0 <= recognizer_n5_visualizer_n12 <= 1
 0 <= recognizer_n5_visualizer_n15 <= 1
 0 <= calibre_n4_piCamera2_n6 <= 1
 0 <= calibre_n4_recognizer_n5 <= 1
 0 <= roiSel_n4_recognizer_n5 <= 1
 0 <= imgQueue_n7_calibre_n9 <= 1
 0 <= rectify_n7_roiSel_n9 <= 1
 0 <= imgQueue_n0_calibre_n14 <= 1
 0 <= rectify_n0_roiSel_n14 <= 1
 0 <= rectify_n0_recognizer_n14 <= 1
 0 <= imgQueue_n0_calibre_n6 <= 1
 0 <= water_n0_snsQueue_n1 <= 1
 0 <= imgQueue_n0_rectify_n1 <= 1
 0 <= water_n0_snsQueue_n8 <= 1
 0 <= imgQueue_n0_rectify_n8 <= 1
 0 <= water_n0_snsQueue_n7 <= 1
 0 <= imgQueue_n0_rectify_n7 <= 1
 0 <= imgQueue_n0_calibre_n5 <= 1
 0 <= rectify_n0_roiSel_n5 <= 1
 0 <= rectify_n0_recognizer_n5 <= 1
 0 <= imgQueue_n0_calibre_n9 <= 1
 0 <= rectify_n0_roiSel_n9 <= 1
 0 <= imgQueue_n0_calibre_n4 <= 1
 0 <= rectify_n0_roiSel_n4 <= 1
 0 <= soil_n6_snsQueue_n7 <= 1
 0 <= piCamera2_n6_imgQueue_n7 <= 1
 0 <= calibre_n6_recognizer_n14 <= 1
 0 <= soil_n6_snsQueue_n8 <= 1
 0 <= piCamera2_n6_imgQueue_n8 <= 1
 0 <= calibre_n6_piCamera2_n6 <= 1
 0 <= imgQueue_n1_rectify_n1 <= 1
 0 <= imgQueue_n8_rectify_n8 <= 1
 0 <= imgQueue_n7_rectify_n7 <= 1
 0 <= imgQueue_n0_rectify_n0 <= 1
 0 <= roiSel_n14_recognizer_n14 <= 1
 0 <= roiSel_n5_recognizer_n5 <= 1
 0 <= imgQueue_n12_visualizer_n12 <= 1
 0 <= imgQueue_n15_visualizer_n15 <= 1
Binaries
 b_n9
 b_n2
 b_n13
 b_n1
 b_n10
 b_n11
 b_n15
 b_n8
 b_n14
 b_n12
 b_n5
 b_n4
 b_n3
 b_n7
 b_n0
 b_n6
 mainDB_n12
 imgQueue_n1
 imgQueue_n15
 imgQueue_n8
 imgQueue_n12
 imgQueue_n7
 imgQueue_n0
 snsQueue_n1
 snsQueue_n15
 snsQueue_n8
 snsQueue_n12
 snsQueue_n7
 snsQueue_n0
 ctrlQueue_n1
 ctrlQueue_n15
 ctrlQueue_n8
 ctrlQueue_n12
 ctrlQueue_n7
 ctrlQueue_n0
 recognizer_n14
 recognizer_n5
 visualizer_n15
 visualizer_n12
 calibre_n9
 calibre_n14
 calibre_n5
 calibre_n4
 calibre_n6
 rectify_n1
 rectify_n15
 rectify_n8
 rectify_n12
 rectify_n7
 rectify_n0
 roiSel_n9
 roiSel_n13
 roiSel_n14
 roiSel_n5
 roiSel_n4
 nutrient_n9_ctrlQueue_n15
 energy_n1_ctrlQueue_n12
 snsQueue_n1_mainDB_n12
 ctrlQueue_n1_mainDB_n12
 imgQueue_n1_mainDB_n12
 imgQueue_n1_rectify_n12
 imgQueue_n1_visualizer_n12
 imgQueue_n1_calibre_n5
 rectify_n1_roiSel_n5
 rectify_n1_recognizer_n5
 energy_n1_ctrlQueue_n15
 imgQueue_n1_rectify_n15
 imgQueue_n1_visualizer_n15
 snsQueue_n8_mainDB_n12
 ctrlQueue_n8_mainDB_n12
 imgQueue_n8_mainDB_n12
 imgQueue_n8_rectify_n12
 imgQueue_n8_visualizer_n12
 imgQueue_n8_calibre_n9
 rectify_n8_roiSel_n9
 imgQueue_n12_calibre_n14
 rectify_n12_roiSel_n14
 rectify_n12_recognizer_n14
 calibre_n5_piCamera2_n6
 recognizer_n5_visualizer_n12
 recognizer_n5_visualizer_n15
 calibre_n4_piCamera2_n6
 calibre_n4_recognizer_n5
 roiSel_n4_recognizer_n5
 imgQueue_n7_calibre_n9
 rectify_n7_roiSel_n9
 imgQueue_n0_calibre_n14
 rectify_n0_roiSel_n14
 rectify_n0_recognizer_n14
 imgQueue_n0_calibre_n6
 water_n0_snsQueue_n1
 imgQueue_n0_rectify_n1
 water_n0_snsQueue_n8
 imgQueue_n0_rectify_n8
 water_n0_snsQueue_n7
 imgQueue_n0_rectify_n7
 imgQueue_n0_calibre_n5
 rectify_n0_roiSel_n5
 rectify_n0_recognizer_n5
 imgQueue_n0_calibre_n9
 rectify_n0_roiSel_n9
 imgQueue_n0_calibre_n4
 rectify_n0_roiSel_n4
 soil_n6_snsQueue_n7
 piCamera2_n6_imgQueue_n7
 calibre_n6_recognizer_n14
 soil_n6_snsQueue_n8
 piCamera2_n6_imgQueue_n8
 calibre_n6_piCamera2_n6
 imgQueue_n1_rectify_n1
 imgQueue_n8_rectify_n8
 imgQueue_n7_rectify_n7
 imgQueue_n0_rectify_n0
 roiSel_n14_recognizer_n14
 roiSel_n5_recognizer_n5
 imgQueue_n12_visualizer_n12
 imgQueue_n15_visualizer_n15
End

